21 21 59 21 59 59 21 59 59 59 59 59 21 21 59 21 21 59 21 59 59 21 21 59 21 21 21 59 21 59 21 59 59 21 59 59 21 21 21 21 21 21 21 59 59 59 59 21 59 21 59 59 59 21 21 21 59 59 21 59 59 59 59 59 21 59 21 59 59 59 21 21 21 21 59 21 21 59 21 21 21 21 59 21 59 21 21 21 21 59 21 21 21 21 59 59 59 21 21 59 21 59 21 59 21 21 21 59 21 59 59 59 21 59 59 59 21 21 21 59 21 59 21 59 21 21 21 21 59 59 21 21 59 21 21 59 59 21 59 59 21 59 59 21 59 59 21 21 21 59 21 21 59 21 21 21 59 59 21 21 59 59 59 21 21 59 21 59 21 21 59 59 59 59 21 59 21 59 59 59 59 21 21 59 59 21 59 21 21 21 59 59 21 59 21 21 59 59 21 21 21 21 59 21 21 21 59 59 59 59 21 59 21 59 21 59 21 21 21 21 59 21 21 21 21 59 59 59 59 21 21 21 59 21 21 59 21 21 59 21 21 21 21 59 59 59 59 21 21 21 59 21 59 21 21 59 21 21 59 21 21 21 21 21 21 59 21 59 21 59 21 59 21 59 59 21 21 21 21 59 59 21 59 21 21 21 21 59 59 21 59 21 59 21 21 21 21 59 21 59 59 59 59 59 21 59 21 59 21 59 59 59 59 59 21 21 21 59 21 59 21 21 21 21 59 59 21 21 21 59 21 21 21 21 21 59 59 21 59 21 21 59 21 21 21 59 59 59 59 59 59 21 21 59 21 59 59 59 21 21 59 21 21 21 59 59 21 59 21 21 59 21 59 21 59 21 59 21 21 59 21 59 59 59 59 21 59 59 21 59 59 21 21 21 21 21 21 59 59 21 59 59 59 59 21 59 21 21 21 59 59 59 59 59 21 59 21 21 21 59 21 21 21 59 59 59 59 21 21 59 59 21 59 59 21 21 21 59 21 59 59 21 21 21 21 59 21 59 21 59 59 21 21 21 21 21 59 21 21 21 21 21 59 21 59 21 21 21 21 59 21 21 21 59 59 59 59 59 59 59 59 59 21 59 21 59 21 21 59 59 59 21 59 59 21 59 21 59 21 59 59 59 59 21 21 59 21 21 59 21 21 21 21 59 21 59 21 59 59 21 21 59 59 21 21 21 21 59 21 59 21 21 59 21 59 21 21 21 21 59 59 59 21 21 21 59 59 59 59 59 21 21 59 21 59 21 21 21 59 59 21 21 59 59 59 59 21 21 59 59 21 59 21 59 59 59 59 59 59 21 59 21 59 59 59 21 59 21 59 59 59 59 21 59 59 21 59 21 59 59 59 59 21 21 59 21 21 21 21 21 59 21 59 59 21 59 21 21 59 59 21 59 59 59 59 59 21 59 21 59 21 21 59 59 59 59 21 21 21 59 59 21 21 59 59 59 21 21 59 21 21 21 21 21 59 21 21 21 21 21 21 59 59 21 59 21 59 21 59 21 21 21 21 59 21 21 21 59 59 21 21 59 59 59 21 59 21 21 59 21 59 21 21 59 21 59 21 21 21 59 59 21 21 21 21 59 59 59 21 21 21 59 21 59 21 59 59 59 21 59 21 21 59 21 59 21 21 21 59 59 21 59 21 59 59 21 21 59 21 59 21 21 59 59 21 21 21 21 59 59 59 21 59 59 59 59 21 21 21 21 59 21 21 21 21 21 59 59 59 59 59 21 21 21 59 59 59 21 21 59 21 21 59 21 21 59 21 59 59 21 21 59 59 21 21 21 59 59 59 59 59 59 59 21 21 59 21 59 21 59 59 59 59 59 59 21 21 21 59 21 59 21 21 59 59 59 59 21 59 59 21 59 59 21 21 59 21 59 59 59 21 59 21 21 21 21 59 59 59 59 21 21 59 59 21 59 59 21 21 21 21 21 21 59 59 21 59 59 21 59 59 59 59 21 21 21 59 59 21 21 59 59 59 59 59 21 21 21 21 59 59 59 21 21 59 59 59 59 59 59 59 59 59 21 59 59 59 59 59 59 21 59 59 21 21 21 21 59 59 59 59 59 59 59 21 21 59 59 21 59 59 59 59 59 21 59 59 21 21 59 21 59 21 59 59 59 21 21 59 21 21 59 21 21 59 59 59 59 59 59 59 59 59 21 21 21 21 21 59 59 59 59 21 21 59 21 21 21 59 21 59 21 21 21 59 59 21 21 59 59 21 21 59 21 59 21 59 21 21 59 